db/data/1531920538162282115524917206342390115860.z3.out
-------------------
2500.223271014
